172358 -1 416985 12493286 177176 0.98
171744 -1 327535 11629812 177188 0.98
171940 -1 412099 12801872 175260 0.99
172224 -1 382550 11730487 176800 0.98
172570 -1 355579 10785896 176716 1
172120 -1 353536 10666879 179164 1
172526 -1 445170 12400283 181396 0.98
172564 -1 307434 9236193 177326 0.99
172126 -1 414985 11618931 177990 1
172114 -1 355408 10534069 179850 0.97
